50

98 11 326
97 23 504
96 1 407
95 20 464
95 24 339
94 13 431
93 8 397
93 13 394
93 3 474
93 5 588
91 26 363
90 4 350
87 18 261
87 25 272
80 8 550
80 3 582
80 14 472
77 9 238
72 8 578
71 17 478
68 19 564
68 10 343
67 9 383
64 18 438
63 16 264
62 15 248
60 3 346
60 13 234
60 10 358
57 1 571
57 11 396
56 6 517
54 8 270
53 10 258
53 2 454
52 10 345
49 15 564
47 3 300
45 11 418
43 8 314
41 8 314
41 8 536
39 12 586
38 8 515
38 1 499
37 12 484
37 10 267
36 4 171
35 8 331
31 3 344
